clingo version 5.4.0
Reading from merger/Niklas/merge.lp ...
Solving...
Answer: 1
occurs(object(robot,1),action(move,(0,-1)),1). occurs(object(robot,1),action(move,(0,0)),3). occurs(object(robot,1),action(move,(1,0)),4). occurs(object(robot,1),action(move,(0,1)),5). occurs(object(robot,1),action(move,(0,0)),6). occurs(object(robot,1),action(move,(0,-1)),7). occurs(object(robot,1),action(move,(-1,0)),8). occurs(object(robot,1),action(move,(0,0)),9). occurs(object(robot,1),action(move,(1,0)),10). occurs(object(robot,1),action(move,(0,0)),11). occurs(object(robot,1),action(move,(0,0)),12). occurs(object(robot,1),action(move,(0,0)),13). occurs(object(robot,1),action(move,(0,0)),14). occurs(object(robot,1),action(move,(0,0)),15). occurs(object(robot,2),action(move,(0,0)),3). occurs(object(robot,2),action(move,(0,0)),4). occurs(object(robot,2),action(move,(0,0)),5). occurs(object(robot,2),action(move,(0,0)),6). occurs(object(robot,2),action(move,(1,0)),7). occurs(object(robot,2),action(move,(0,-1)),8). occurs(object(robot,2),action(move,(0,0)),9). occurs(object(robot,2),action(move,(0,1)),10). occurs(object(robot,2),action(move,(-1,0)),11). occurs(object(robot,2),action(move,(0,0)),12). occurs(object(robot,2),action(move,(0,0)),13). occurs(object(robot,2),action(move,(0,0)),14). occurs(object(robot,2),action(move,(0,0)),15). occurs(object(robot,2),action(move,(-1,0)),2). occurs(object(robot,1),action(move,(0,0)),2). occurs(object(robot,2),action(move,(-1,0)),1).
Optimization: 15
Answer: 2
occurs(object(robot,1),action(move,(0,-1)),1). occurs(object(robot,2),action(move,(0,-1)),1). occurs(object(robot,1),action(move,(0,0)),3). occurs(object(robot,1),action(move,(1,0)),4). occurs(object(robot,1),action(move,(0,1)),5). occurs(object(robot,1),action(move,(-1,0)),6). occurs(object(robot,1),action(move,(0,-1)),7). occurs(object(robot,1),action(move,(0,0)),8). occurs(object(robot,1),action(move,(0,0)),9). occurs(object(robot,1),action(move,(1,0)),10). occurs(object(robot,1),action(move,(0,-1)),11). occurs(object(robot,1),action(move,(-1,0)),12). occurs(object(robot,1),action(move,(0,0)),13). occurs(object(robot,1),action(move,(1,0)),14). occurs(object(robot,1),action(move,(0,1)),15). occurs(object(robot,2),action(move,(0,0)),4). occurs(object(robot,2),action(move,(0,0)),5). occurs(object(robot,2),action(move,(0,0)),6). occurs(object(robot,2),action(move,(-1,0)),7). occurs(object(robot,2),action(move,(0,-1)),8). occurs(object(robot,2),action(move,(0,0)),9). occurs(object(robot,2),action(move,(0,1)),10). occurs(object(robot,2),action(move,(-1,0)),11). occurs(object(robot,2),action(move,(0,0)),12). occurs(object(robot,2),action(move,(0,0)),13). occurs(object(robot,2),action(move,(0,0)),14). occurs(object(robot,2),action(move,(0,0)),15). occurs(object(robot,1),action(move,(0,0)),2). occurs(object(robot,2),action(move,(0,0)),2). occurs(object(robot,2),action(move,(0,1)),3).
Optimization: 14
OPTIMUM FOUND

Models       : 2
  Optimum    : yes
Optimization : 14
Calls        : 1
Time         : 0.053s (Solving: 0.00s 1st Model: 0.00s Unsat: 0.00s)
CPU Time     : 0.051s
